<number of tasks>
50

<cycle time>
1000

<order strength>
0.595


<task times>
1 342
2 297
3 396
4 445
5 331
6 439
7 535
8 503
9 497
10 506
11 532
12 554
13 554
14 572
15 441
16 501
17 461
18 400
19 433
20 499
21 396
22 409
23 640
24 454
25 739
26 597
27 553
28 631
29 520
30 638
31 274
32 560
33 479
34 682
35 666
36 532
37 209
38 751
39 440
40 386
41 515
42 540
43 717
44 576
45 505
46 475
47 499
48 648
49 528
50 459

<precedence relations>
1,20
2,20
3,39
4,5
4,6
4,7
5,39
6,36
7,8
7,9
7,10
8,12
8,13
9,11
9,12
9,13
10,11
10,12
10,13
11,39
12,14
12,15
12,16
12,17
12,18
12,19
13,14
13,15
13,16
13,17
13,18
13,19
14,20
15,20
16,20
17,36
18,20
18,21
18,22
18,23
19,21
19,22
19,23
19,31
20,24
20,25
20,26
20,27
20,28
20,29
20,30
21,36
22,30
22,32
23,29
23,32
24,36
25,31
26,32
26,34
26,38
27,31
27,32
27,33
27,34
28,31
28,32
28,45
29,33
29,34
30,33
30,34
31,39
32,36
33,38
33,45
34,35
34,36
34,37
35,39
36,40
36,41
36,42
36,43
36,44
37,45
39,46
39,47
39,48
39,49
39,50

<end>
